c ind 10 120 123 13 134 136 138 140 145 147 0
c ind 149 15 16 175 232 25 28 39 41 428 0
c ind 43 45 5 53 6 69 78 9 0
p cnf 428 1851
-1 -2 11 0
-1 2 231 0
-100 -60 16 0
-100 60 101 0
-101 -64 102 0
-101 64 103 0
-102 -68 16 0
-102 68 47 0
-103 -71 16 0
-103 71 104 0
-104 -74 105 0
-104 74 106 0
-105 -77 16 0
-105 77 47 0
-106 -80 16 0
-106 80 107 0
-107 -83 16 0
-107 83 108 0
-108 -86 102 0
-108 86 109 0
-109 -88 16 0
-109 88 110 0
-11 -12 14 0
-11 12 17 0
-110 -90 105 0
-110 90 47 0
-111 -112 230 0
-111 112 231 0
-112 -22 113 0
-112 22 52 0
-113 -30 16 0
-113 30 114 0
-114 -32 115 0
-114 32 52 0
-115 -116 52 0
-115 116 176 0
-116 -117 124 0
-116 117 130 0
-117 118 121 0
-118 -119 0
-119 -120 25 0
-119 -25 120 0
-12 -13 9 0
-12 -9 13 0
-121 -122 0
-122 -123 28 0
-122 -28 123 0
-124 -125 13 0
-124 125 126 0
-125 -13 28 0
-125 -28 13 0
-126 -127 129 0
-126 127 130 0
-127 118 0
-127 128 0
-128 -13 25 0
-128 -25 13 0
-129 -130 141 0
-129 130 150 0
-130 131 0
-130 139 0
-131 132 0
-131 137 0
-132 133 0
-132 135 0
-133 -134 16 0
-133 -16 134 0
-135 -136 16 0
-135 -16 136 0
-137 -138 16 0
-137 -16 138 0
-139 -140 16 0
-139 -16 140 0
-14 -15 16 0
-14 -16 15 0
-141 -142 16 0
-141 142 130 0
-142 143 0
-142 148 0
-143 144 0
-143 146 0
-144 -13 145 0
-144 -145 13 0
-146 -13 147 0
-146 -147 13 0
-148 -13 149 0
-148 -149 13 0
-150 -151 155 0
-150 151 157 0
-151 139 0
-151 152 0
-152 137 0
-152 153 0
-153 133 0
-153 154 0
-154 -13 136 0
-154 -136 13 0
-155 -156 16 0
-155 156 130 0
-156 -147 16 0
-156 -16 147 0
-157 -158 161 0
-157 158 164 0
-158 139 0
-158 159 0
-159 132 0
-159 160 0
-16 0
-160 -13 138 0
-160 -138 13 0
-161 -162 16 0
-161 162 130 0
-162 143 0
-162 163 0
-163 -149 16 0
-163 -16 149 0
-164 -165 155 0
-164 165 169 0
-165 139 0
-165 166 0
-166 137 0
-166 167 0
-167 154 0
-167 168 0
-168 -13 134 0
-168 -134 13 0
-169 -170 173 0
-169 170 130 0
-17 -18 20 0
-17 18 231 0
-170 139 0
-170 171 0
-171 137 0
-171 172 0
-172 135 0
-172 168 0
-173 -174 13 0
-173 174 130 0
-174 -13 175 0
-174 -175 13 0
-176 -177 52 0
-176 177 189 0
-177 -117 178 0
-177 117 151 0
-178 -125 16 0
-178 125 179 0
-179 -127 180 0
-179 127 151 0
-18 19 0
-18 3 0
-180 -130 181 0
-180 130 182 0
-181 -142 13 0
-181 142 151 0
-182 -151 183 0
-182 151 184 0
-183 -156 16 0
-183 156 151 0
-184 -158 185 0
-184 158 186 0
-185 -162 16 0
-185 162 151 0
-186 -165 183 0
-186 165 187 0
-187 -170 188 0
-187 170 151 0
-188 -174 16 0
-188 174 151 0
-189 -190 52 0
-189 190 203 0
-19 -13 5 0
-19 -5 13 0
-190 -117 191 0
-190 117 158 0
-191 -125 16 0
-191 125 192 0
-192 -127 193 0
-192 127 158 0
-193 -130 194 0
-193 130 195 0
-194 -142 16 0
-194 142 158 0
-195 -151 196 0
-195 151 197 0
-196 -156 13 0
-196 156 158 0
-197 -158 198 0
-197 158 199 0
-198 -162 16 0
-198 162 158 0
-199 -165 200 0
-199 165 201 0
-2 3 7 0
-20 -21 14 0
-20 21 92 0
-200 -156 16 0
-200 156 158 0
-201 -170 202 0
-201 170 158 0
-202 -174 16 0
-202 174 158 0
-203 -204 13 0
-203 204 216 0
-204 -117 205 0
-204 117 165 0
-205 -125 16 0
-205 125 206 0
-206 -127 207 0
-206 127 165 0
-207 -130 208 0
-207 130 209 0
-208 -142 16 0
-208 142 165 0
-209 -151 210 0
-209 151 211 0
-21 -22 29 0
-21 22 35 0
-210 -156 16 0
-210 156 165 0
-211 -158 212 0
-211 158 213 0
-212 -162 13 0
-212 162 165 0
-213 -165 210 0
-213 165 214 0
-214 -170 215 0
-214 170 165 0
-215 -174 16 0
-215 174 165 0
-216 -217 16 0
-216 217 52 0
-217 -117 218 0
-217 117 170 0
-218 -125 16 0
-218 125 219 0
-219 -127 220 0
-219 127 170 0
-22 23 26 0
-220 -130 221 0
-220 130 222 0
-221 -142 16 0
-221 142 170 0
-222 -151 223 0
-222 151 224 0
-223 -156 16 0
-223 156 170 0
-224 -158 225 0
-224 158 226 0
-225 -162 16 0
-225 162 170 0
-226 -165 227 0
-226 165 228 0
-227 -156 13 0
-227 156 170 0
-228 -170 229 0
-228 170 170 0
-229 -174 16 0
-229 174 170 0
-23 -24 0
-230 -13 15 0
-230 -15 13 0
-231 -15 232 0
-231 -232 15 0
-233 -234 231 0
-233 234 252 0
-234 -22 235 0
-234 22 55 0
-235 -30 16 0
-235 30 236 0
-236 -32 237 0
-236 32 55 0
-237 -35 16 0
-237 35 238 0
-238 -47 239 0
-238 47 240 0
-239 -52 13 0
-239 52 55 0
-24 -25 6 0
-24 -6 25 0
-240 -55 16 0
-240 55 241 0
-241 -60 16 0
-241 60 242 0
-242 -64 243 0
-242 64 244 0
-243 -68 16 0
-243 68 55 0
-244 -71 16 0
-244 71 245 0
-245 -74 246 0
-245 74 247 0
-246 -77 16 0
-246 77 55 0
-247 -80 16 0
-247 80 248 0
-248 -83 16 0
-248 83 249 0
-249 -86 243 0
-249 86 250 0
-250 -88 16 0
-250 88 251 0
-251 -90 246 0
-251 90 55 0
-252 -253 231 0
-252 253 271 0
-253 -22 254 0
-253 22 60 0
-254 -30 16 0
-254 30 255 0
-255 -32 256 0
-255 32 60 0
-256 -35 16 0
-256 35 257 0
-257 -47 258 0
-257 47 259 0
-258 -52 16 0
-258 52 60 0
-259 -55 13 0
-259 55 260 0
-26 -27 0
-260 -60 16 0
-260 60 261 0
-261 -64 262 0
-261 64 263 0
-262 -68 16 0
-262 68 60 0
-263 -71 16 0
-263 71 264 0
-264 -74 265 0
-264 74 266 0
-265 -77 16 0
-265 77 60 0
-266 -80 16 0
-266 80 267 0
-267 -83 16 0
-267 83 268 0
-268 -86 262 0
-268 86 269 0
-269 -88 16 0
-269 88 270 0
-27 -10 28 0
-27 -28 10 0
-270 -90 265 0
-270 90 60 0
-271 -272 231 0
-271 272 290 0
-272 -22 273 0
-272 22 64 0
-273 -30 16 0
-273 30 274 0
-274 -32 275 0
-274 32 64 0
-275 -35 16 0
-275 35 276 0
-276 -47 277 0
-276 47 278 0
-277 -52 16 0
-277 52 64 0
-278 -55 16 0
-278 55 279 0
-279 -60 13 0
-279 60 280 0
-280 -64 281 0
-280 64 282 0
-281 -68 16 0
-281 68 64 0
-282 -71 16 0
-282 71 283 0
-283 -74 284 0
-283 74 285 0
-284 -77 16 0
-284 77 64 0
-285 -80 16 0
-285 80 286 0
-286 -83 16 0
-286 83 287 0
-287 -86 281 0
-287 86 288 0
-288 -88 16 0
-288 88 289 0
-289 -90 284 0
-289 90 64 0
-29 -30 13 0
-29 30 31 0
-290 -291 231 0
-290 291 310 0
-291 -22 292 0
-291 22 71 0
-292 -30 16 0
-292 30 293 0
-293 -32 294 0
-293 32 71 0
-294 -35 16 0
-294 35 295 0
-295 -47 296 0
-295 47 297 0
-296 -52 16 0
-296 52 71 0
-297 -55 16 0
-297 55 298 0
-298 -60 16 0
-298 60 299 0
-299 -64 300 0
-299 64 301 0
-3 -4 0
-30 -10 13 0
-30 -13 10 0
-300 -68 13 0
-300 68 71 0
-301 -71 16 0
-301 71 302 0
-302 -74 303 0
-302 74 304 0
-303 -77 16 0
-303 77 71 0
-304 -80 16 0
-304 80 305 0
-305 -83 16 0
-305 83 306 0
-306 -86 307 0
-306 86 308 0
-307 -68 16 0
-307 68 71 0
-308 -88 16 0
-308 88 309 0
-309 -90 303 0
-309 90 71 0
-31 -32 34 0
-31 32 35 0
-310 -311 231 0
-310 311 329 0
-311 -22 312 0
-311 22 74 0
-312 -30 16 0
-312 30 313 0
-313 -32 314 0
-313 32 74 0
-314 -35 16 0
-314 35 315 0
-315 -47 316 0
-315 47 317 0
-316 -52 16 0
-316 52 74 0
-317 -55 16 0
-317 55 318 0
-318 -60 16 0
-318 60 319 0
-319 -64 320 0
-319 64 321 0
-32 23 0
-32 33 0
-320 -68 16 0
-320 68 74 0
-321 -71 13 0
-321 71 322 0
-322 -74 323 0
-322 74 324 0
-323 -77 16 0
-323 77 74 0
-324 -80 16 0
-324 80 325 0
-325 -83 16 0
-325 83 326 0
-326 -86 320 0
-326 86 327 0
-327 -88 16 0
-327 88 328 0
-328 -90 323 0
-328 90 74 0
-329 -330 231 0
-329 330 349 0
-33 -13 6 0
-33 -6 13 0
-330 -22 331 0
-330 22 80 0
-331 -30 16 0
-331 30 332 0
-332 -32 333 0
-332 32 80 0
-333 -35 16 0
-333 35 334 0
-334 -47 335 0
-334 47 336 0
-335 -52 16 0
-335 52 80 0
-336 -55 16 0
-336 55 337 0
-337 -60 16 0
-337 60 338 0
-338 -64 339 0
-338 64 340 0
-339 -68 16 0
-339 68 80 0
-34 -35 16 0
-34 35 46 0
-340 -71 16 0
-340 71 341 0
-341 -74 342 0
-341 74 343 0
-342 -77 13 0
-342 77 80 0
-343 -80 16 0
-343 80 344 0
-344 -83 16 0
-344 83 345 0
-345 -86 339 0
-345 86 346 0
-346 -88 16 0
-346 88 347 0
-347 -90 348 0
-347 90 80 0
-348 -77 16 0
-348 77 80 0
-349 -350 231 0
-349 350 368 0
-35 36 0
-35 44 0
-350 -22 351 0
-350 22 83 0
-351 -30 16 0
-351 30 352 0
-352 -32 353 0
-352 32 83 0
-353 -35 16 0
-353 35 354 0
-354 -47 355 0
-354 47 356 0
-355 -52 16 0
-355 52 83 0
-356 -55 16 0
-356 55 357 0
-357 -60 16 0
-357 60 358 0
-358 -64 359 0
-358 64 360 0
-359 -68 16 0
-359 68 83 0
-36 37 0
-36 42 0
-360 -71 16 0
-360 71 361 0
-361 -74 362 0
-361 74 363 0
-362 -77 16 0
-362 77 83 0
-363 -80 13 0
-363 80 364 0
-364 -83 16 0
-364 83 365 0
-365 -86 359 0
-365 86 366 0
-366 -88 16 0
-366 88 367 0
-367 -90 362 0
-367 90 83 0
-368 -369 231 0
-368 369 387 0
-369 -22 370 0
-369 22 86 0
-37 38 0
-37 40 0
-370 -30 16 0
-370 30 371 0
-371 -32 372 0
-371 32 86 0
-372 -35 16 0
-372 35 373 0
-373 -47 374 0
-373 47 375 0
-374 -52 16 0
-374 52 86 0
-375 -55 16 0
-375 55 376 0
-376 -60 16 0
-376 60 377 0
-377 -64 378 0
-377 64 379 0
-378 -68 16 0
-378 68 86 0
-379 -71 16 0
-379 71 380 0
-38 -16 39 0
-38 -39 16 0
-380 -74 381 0
-380 74 382 0
-381 -77 16 0
-381 77 86 0
-382 -80 16 0
-382 80 383 0
-383 -83 13 0
-383 83 384 0
-384 -86 378 0
-384 86 385 0
-385 -88 16 0
-385 88 386 0
-386 -90 381 0
-386 90 86 0
-387 -388 231 0
-387 388 407 0
-388 -22 389 0
-388 22 88 0
-389 -30 16 0
-389 30 390 0
-390 -32 391 0
-390 32 88 0
-391 -35 16 0
-391 35 392 0
-392 -47 393 0
-392 47 394 0
-393 -52 16 0
-393 52 88 0
-394 -55 16 0
-394 55 395 0
-395 -60 16 0
-395 60 396 0
-396 -64 397 0
-396 64 398 0
-397 -68 16 0
-397 68 88 0
-398 -71 16 0
-398 71 399 0
-399 -74 400 0
-399 74 401 0
-4 -5 6 0
-4 -6 5 0
-40 -16 41 0
-40 -41 16 0
-400 -77 16 0
-400 77 88 0
-401 -80 16 0
-401 80 402 0
-402 -83 16 0
-402 83 403 0
-403 -86 404 0
-403 86 405 0
-404 -68 13 0
-404 68 88 0
-405 -88 16 0
-405 88 406 0
-406 -90 400 0
-406 90 88 0
-407 -408 426 0
-407 408 14 0
-408 -22 409 0
-408 22 90 0
-409 -30 16 0
-409 30 410 0
-410 -32 411 0
-410 32 90 0
-411 -35 16 0
-411 35 412 0
-412 -47 413 0
-412 47 414 0
-413 -52 16 0
-413 52 90 0
-414 -55 16 0
-414 55 415 0
-415 -60 16 0
-415 60 416 0
-416 -64 417 0
-416 64 418 0
-417 -68 16 0
-417 68 90 0
-418 -71 16 0
-418 71 419 0
-419 -74 420 0
-419 74 421 0
-42 -16 43 0
-42 -43 16 0
-420 -77 16 0
-420 77 90 0
-421 -80 16 0
-421 80 422 0
-422 -83 16 0
-422 83 423 0
-423 -86 417 0
-423 86 424 0
-424 -88 13 0
-424 88 425 0
-425 -90 420 0
-425 90 90 0
-426 -427 14 0
-426 427 231 0
-427 -13 428 0
-427 -428 13 0
-44 -16 45 0
-44 -45 16 0
-46 -47 51 0
-46 47 54 0
-47 44 0
-47 48 0
-48 42 0
-48 49 0
-49 40 0
-49 50 0
-50 -13 39 0
-50 -39 13 0
-51 -52 16 0
-51 52 35 0
-52 -13 53 0
-52 -53 13 0
-54 -55 16 0
-54 55 59 0
-55 44 0
-55 56 0
-56 42 0
-56 57 0
-57 38 0
-57 58 0
-58 -13 41 0
-58 -41 13 0
-59 -60 16 0
-59 60 63 0
-60 44 0
-60 61 0
-61 42 0
-61 62 0
-62 50 0
-62 58 0
-63 -64 67 0
-63 64 70 0
-64 44 0
-64 65 0
-65 37 0
-65 66 0
-66 -13 43 0
-66 -43 13 0
-67 -68 16 0
-67 68 35 0
-68 -13 69 0
-68 -69 13 0
-7 -8 0
-70 -71 16 0
-70 71 73 0
-71 44 0
-71 72 0
-72 49 0
-72 66 0
-73 -74 76 0
-73 74 79 0
-74 56 0
-74 75 0
-75 -13 45 0
-75 -45 13 0
-76 -77 16 0
-76 77 35 0
-77 -13 78 0
-77 -78 13 0
-79 -80 16 0
-79 80 82 0
-8 -10 9 0
-8 -9 10 0
-80 44 0
-80 81 0
-81 57 0
-81 66 0
-82 -83 16 0
-82 83 85 0
-83 44 0
-83 84 0
-84 62 0
-84 66 0
-85 -86 67 0
-85 86 87 0
-86 36 0
-86 75 0
-87 -88 16 0
-87 88 89 0
-88 48 0
-88 75 0
-89 -90 91 0
-89 90 35 0
-90 61 0
-90 75 0
-91 -77 13 0
-91 77 35 0
-92 -93 111 0
-92 93 233 0
-93 -22 94 0
-93 22 47 0
-94 -30 16 0
-94 30 95 0
-95 -32 96 0
-95 32 47 0
-96 -35 13 0
-96 35 97 0
-97 -47 98 0
-97 47 99 0
-98 -52 16 0
-98 52 47 0
-99 -55 16 0
-99 55 100 0
1 -11 -231 0
1 -2 -11 0
1 0
1 2 -231 0
100 -16 -101 0
100 -60 -16 0
100 60 -101 0
101 -102 -103 0
101 -64 -102 0
101 64 -103 0
102 -16 -47 0
102 -68 -16 0
102 68 -47 0
103 -16 -104 0
103 -71 -16 0
103 71 -104 0
104 -105 -106 0
104 -74 -105 0
104 74 -106 0
105 -16 -47 0
105 -77 -16 0
105 77 -47 0
106 -16 -107 0
106 -80 -16 0
106 80 -107 0
107 -16 -108 0
107 -83 -16 0
107 83 -108 0
108 -102 -109 0
108 -86 -102 0
108 86 -109 0
109 -16 -110 0
109 -88 -16 0
109 88 -110 0
11 -12 -14 0
11 -14 -17 0
11 12 -17 0
110 -105 -47 0
110 -90 -105 0
110 90 -47 0
111 -112 -230 0
111 -230 -231 0
111 112 -231 0
112 -113 -52 0
112 -22 -113 0
112 22 -52 0
113 -16 -114 0
113 -30 -16 0
113 30 -114 0
114 -115 -52 0
114 -32 -115 0
114 32 -52 0
115 -116 -52 0
115 -52 -176 0
115 116 -176 0
116 -117 -124 0
116 -124 -130 0
116 117 -130 0
117 -118 0
117 -121 0
118 119 0
119 -25 -120 0
119 25 120 0
12 -9 -13 0
12 9 13 0
121 122 0
122 -28 -123 0
122 28 123 0
124 -125 -13 0
124 -13 -126 0
124 125 -126 0
125 -28 -13 0
125 28 13 0
126 -127 -129 0
126 -129 -130 0
126 127 -130 0
127 -118 -128 0
128 -25 -13 0
128 25 13 0
129 -130 -141 0
129 -141 -150 0
129 130 -150 0
13 0
130 -131 -139 0
131 -132 -137 0
132 -133 -135 0
133 -134 -16 0
133 134 16 0
135 -136 -16 0
135 136 16 0
137 -138 -16 0
137 138 16 0
139 -140 -16 0
139 140 16 0
14 -15 -16 0
14 15 16 0
141 -142 -16 0
141 -16 -130 0
141 142 -130 0
142 -143 -148 0
143 -144 -146 0
144 -145 -13 0
144 145 13 0
146 -147 -13 0
146 147 13 0
148 -149 -13 0
148 149 13 0
150 -151 -155 0
150 -155 -157 0
150 151 -157 0
151 -152 -139 0
152 -153 -137 0
153 -133 -154 0
154 -136 -13 0
154 136 13 0
155 -156 -16 0
155 -16 -130 0
155 156 -130 0
156 -147 -16 0
156 147 16 0
157 -158 -161 0
157 -161 -164 0
157 158 -164 0
158 -159 -139 0
159 -132 -160 0
160 -138 -13 0
160 138 13 0
161 -16 -130 0
161 -162 -16 0
161 162 -130 0
162 -143 -163 0
163 -149 -16 0
163 149 16 0
164 -155 -169 0
164 -165 -155 0
164 165 -169 0
165 -166 -139 0
166 -167 -137 0
167 -168 -154 0
168 -134 -13 0
168 134 13 0
169 -170 -173 0
169 -173 -130 0
169 170 -130 0
17 -18 -20 0
17 -20 -231 0
17 18 -231 0
170 -171 -139 0
171 -172 -137 0
172 -168 -135 0
173 -13 -130 0
173 -174 -13 0
173 174 -130 0
174 -175 -13 0
174 175 13 0
176 -177 -52 0
176 -52 -189 0
176 177 -189 0
177 -117 -178 0
177 -178 -151 0
177 117 -151 0
178 -125 -16 0
178 -16 -179 0
178 125 -179 0
179 -127 -180 0
179 -180 -151 0
179 127 -151 0
18 -3 -19 0
180 -130 -181 0
180 -181 -182 0
180 130 -182 0
181 -13 -151 0
181 -142 -13 0
181 142 -151 0
182 -151 -183 0
182 -183 -184 0
182 151 -184 0
183 -156 -16 0
183 -16 -151 0
183 156 -151 0
184 -158 -185 0
184 -185 -186 0
184 158 -186 0
185 -16 -151 0
185 -162 -16 0
185 162 -151 0
186 -165 -183 0
186 -183 -187 0
186 165 -187 0
187 -170 -188 0
187 -188 -151 0
187 170 -151 0
188 -16 -151 0
188 -174 -16 0
188 174 -151 0
189 -190 -52 0
189 -52 -203 0
189 190 -203 0
19 -5 -13 0
19 5 13 0
190 -117 -191 0
190 -191 -158 0
190 117 -158 0
191 -125 -16 0
191 -16 -192 0
191 125 -192 0
192 -127 -193 0
192 -193 -158 0
192 127 -158 0
193 -130 -194 0
193 -194 -195 0
193 130 -195 0
194 -142 -16 0
194 -16 -158 0
194 142 -158 0
195 -151 -196 0
195 -196 -197 0
195 151 -197 0
196 -13 -158 0
196 -156 -13 0
196 156 -158 0
197 -158 -198 0
197 -198 -199 0
197 158 -199 0
198 -16 -158 0
198 -162 -16 0
198 162 -158 0
199 -165 -200 0
199 -200 -201 0
199 165 -201 0
2 -3 0
2 -7 0
20 -14 -92 0
20 -21 -14 0
20 21 -92 0
200 -156 -16 0
200 -16 -158 0
200 156 -158 0
201 -170 -202 0
201 -202 -158 0
201 170 -158 0
202 -16 -158 0
202 -174 -16 0
202 174 -158 0
203 -13 -216 0
203 -204 -13 0
203 204 -216 0
204 -117 -205 0
204 -205 -165 0
204 117 -165 0
205 -125 -16 0
205 -16 -206 0
205 125 -206 0
206 -127 -207 0
206 -207 -165 0
206 127 -165 0
207 -130 -208 0
207 -208 -209 0
207 130 -209 0
208 -142 -16 0
208 -16 -165 0
208 142 -165 0
209 -151 -210 0
209 -210 -211 0
209 151 -211 0
21 -22 -29 0
21 -29 -35 0
21 22 -35 0
210 -156 -16 0
210 -16 -165 0
210 156 -165 0
211 -158 -212 0
211 -212 -213 0
211 158 -213 0
212 -13 -165 0
212 -162 -13 0
212 162 -165 0
213 -165 -210 0
213 -210 -214 0
213 165 -214 0
214 -170 -215 0
214 -215 -165 0
214 170 -165 0
215 -16 -165 0
215 -174 -16 0
215 174 -165 0
216 -16 -52 0
216 -217 -16 0
216 217 -52 0
217 -117 -218 0
217 -218 -170 0
217 117 -170 0
218 -125 -16 0
218 -16 -219 0
218 125 -219 0
219 -127 -220 0
219 -220 -170 0
219 127 -170 0
22 -23 0
22 -26 0
220 -130 -221 0
220 -221 -222 0
220 130 -222 0
221 -142 -16 0
221 -16 -170 0
221 142 -170 0
222 -151 -223 0
222 -223 -224 0
222 151 -224 0
223 -156 -16 0
223 -16 -170 0
223 156 -170 0
224 -158 -225 0
224 -225 -226 0
224 158 -226 0
225 -16 -170 0
225 -162 -16 0
225 162 -170 0
226 -165 -227 0
226 -227 -228 0
226 165 -228 0
227 -13 -170 0
227 -156 -13 0
227 156 -170 0
228 -170 -229 0
228 -229 -170 0
228 170 -170 0
229 -16 -170 0
229 -174 -16 0
229 174 -170 0
23 24 0
230 -15 -13 0
230 15 13 0
231 -15 -232 0
231 15 232 0
233 -231 -252 0
233 -234 -231 0
233 234 -252 0
234 -22 -235 0
234 -235 -55 0
234 22 -55 0
235 -16 -236 0
235 -30 -16 0
235 30 -236 0
236 -237 -55 0
236 -32 -237 0
236 32 -55 0
237 -16 -238 0
237 -35 -16 0
237 35 -238 0
238 -239 -240 0
238 -47 -239 0
238 47 -240 0
239 -13 -55 0
239 -52 -13 0
239 52 -55 0
24 -6 -25 0
24 6 25 0
240 -16 -241 0
240 -55 -16 0
240 55 -241 0
241 -16 -242 0
241 -60 -16 0
241 60 -242 0
242 -243 -244 0
242 -64 -243 0
242 64 -244 0
243 -16 -55 0
243 -68 -16 0
243 68 -55 0
244 -16 -245 0
244 -71 -16 0
244 71 -245 0
245 -246 -247 0
245 -74 -246 0
245 74 -247 0
246 -16 -55 0
246 -77 -16 0
246 77 -55 0
247 -16 -248 0
247 -80 -16 0
247 80 -248 0
248 -16 -249 0
248 -83 -16 0
248 83 -249 0
249 -243 -250 0
249 -86 -243 0
249 86 -250 0
250 -16 -251 0
250 -88 -16 0
250 88 -251 0
251 -246 -55 0
251 -90 -246 0
251 90 -55 0
252 -231 -271 0
252 -253 -231 0
252 253 -271 0
253 -22 -254 0
253 -254 -60 0
253 22 -60 0
254 -16 -255 0
254 -30 -16 0
254 30 -255 0
255 -256 -60 0
255 -32 -256 0
255 32 -60 0
256 -16 -257 0
256 -35 -16 0
256 35 -257 0
257 -258 -259 0
257 -47 -258 0
257 47 -259 0
258 -16 -60 0
258 -52 -16 0
258 52 -60 0
259 -13 -260 0
259 -55 -13 0
259 55 -260 0
26 27 0
260 -16 -261 0
260 -60 -16 0
260 60 -261 0
261 -262 -263 0
261 -64 -262 0
261 64 -263 0
262 -16 -60 0
262 -68 -16 0
262 68 -60 0
263 -16 -264 0
263 -71 -16 0
263 71 -264 0
264 -265 -266 0
264 -74 -265 0
264 74 -266 0
265 -16 -60 0
265 -77 -16 0
265 77 -60 0
266 -16 -267 0
266 -80 -16 0
266 80 -267 0
267 -16 -268 0
267 -83 -16 0
267 83 -268 0
268 -262 -269 0
268 -86 -262 0
268 86 -269 0
269 -16 -270 0
269 -88 -16 0
269 88 -270 0
27 -10 -28 0
27 10 28 0
270 -265 -60 0
270 -90 -265 0
270 90 -60 0
271 -231 -290 0
271 -272 -231 0
271 272 -290 0
272 -22 -273 0
272 -273 -64 0
272 22 -64 0
273 -16 -274 0
273 -30 -16 0
273 30 -274 0
274 -275 -64 0
274 -32 -275 0
274 32 -64 0
275 -16 -276 0
275 -35 -16 0
275 35 -276 0
276 -277 -278 0
276 -47 -277 0
276 47 -278 0
277 -16 -64 0
277 -52 -16 0
277 52 -64 0
278 -16 -279 0
278 -55 -16 0
278 55 -279 0
279 -13 -280 0
279 -60 -13 0
279 60 -280 0
280 -281 -282 0
280 -64 -281 0
280 64 -282 0
281 -16 -64 0
281 -68 -16 0
281 68 -64 0
282 -16 -283 0
282 -71 -16 0
282 71 -283 0
283 -284 -285 0
283 -74 -284 0
283 74 -285 0
284 -16 -64 0
284 -77 -16 0
284 77 -64 0
285 -16 -286 0
285 -80 -16 0
285 80 -286 0
286 -16 -287 0
286 -83 -16 0
286 83 -287 0
287 -281 -288 0
287 -86 -281 0
287 86 -288 0
288 -16 -289 0
288 -88 -16 0
288 88 -289 0
289 -284 -64 0
289 -90 -284 0
289 90 -64 0
29 -13 -31 0
29 -30 -13 0
29 30 -31 0
290 -231 -310 0
290 -291 -231 0
290 291 -310 0
291 -22 -292 0
291 -292 -71 0
291 22 -71 0
292 -16 -293 0
292 -30 -16 0
292 30 -293 0
293 -294 -71 0
293 -32 -294 0
293 32 -71 0
294 -16 -295 0
294 -35 -16 0
294 35 -295 0
295 -296 -297 0
295 -47 -296 0
295 47 -297 0
296 -16 -71 0
296 -52 -16 0
296 52 -71 0
297 -16 -298 0
297 -55 -16 0
297 55 -298 0
298 -16 -299 0
298 -60 -16 0
298 60 -299 0
299 -300 -301 0
299 -64 -300 0
299 64 -301 0
3 4 0
30 -10 -13 0
30 10 13 0
300 -13 -71 0
300 -68 -13 0
300 68 -71 0
301 -16 -302 0
301 -71 -16 0
301 71 -302 0
302 -303 -304 0
302 -74 -303 0
302 74 -304 0
303 -16 -71 0
303 -77 -16 0
303 77 -71 0
304 -16 -305 0
304 -80 -16 0
304 80 -305 0
305 -16 -306 0
305 -83 -16 0
305 83 -306 0
306 -307 -308 0
306 -86 -307 0
306 86 -308 0
307 -16 -71 0
307 -68 -16 0
307 68 -71 0
308 -16 -309 0
308 -88 -16 0
308 88 -309 0
309 -303 -71 0
309 -90 -303 0
309 90 -71 0
31 -32 -34 0
31 -34 -35 0
31 32 -35 0
310 -231 -329 0
310 -311 -231 0
310 311 -329 0
311 -22 -312 0
311 -312 -74 0
311 22 -74 0
312 -16 -313 0
312 -30 -16 0
312 30 -313 0
313 -314 -74 0
313 -32 -314 0
313 32 -74 0
314 -16 -315 0
314 -35 -16 0
314 35 -315 0
315 -316 -317 0
315 -47 -316 0
315 47 -317 0
316 -16 -74 0
316 -52 -16 0
316 52 -74 0
317 -16 -318 0
317 -55 -16 0
317 55 -318 0
318 -16 -319 0
318 -60 -16 0
318 60 -319 0
319 -320 -321 0
319 -64 -320 0
319 64 -321 0
32 -23 -33 0
320 -16 -74 0
320 -68 -16 0
320 68 -74 0
321 -13 -322 0
321 -71 -13 0
321 71 -322 0
322 -323 -324 0
322 -74 -323 0
322 74 -324 0
323 -16 -74 0
323 -77 -16 0
323 77 -74 0
324 -16 -325 0
324 -80 -16 0
324 80 -325 0
325 -16 -326 0
325 -83 -16 0
325 83 -326 0
326 -320 -327 0
326 -86 -320 0
326 86 -327 0
327 -16 -328 0
327 -88 -16 0
327 88 -328 0
328 -323 -74 0
328 -90 -323 0
328 90 -74 0
329 -231 -349 0
329 -330 -231 0
329 330 -349 0
33 -6 -13 0
33 6 13 0
330 -22 -331 0
330 -331 -80 0
330 22 -80 0
331 -16 -332 0
331 -30 -16 0
331 30 -332 0
332 -32 -333 0
332 -333 -80 0
332 32 -80 0
333 -16 -334 0
333 -35 -16 0
333 35 -334 0
334 -335 -336 0
334 -47 -335 0
334 47 -336 0
335 -16 -80 0
335 -52 -16 0
335 52 -80 0
336 -16 -337 0
336 -55 -16 0
336 55 -337 0
337 -16 -338 0
337 -60 -16 0
337 60 -338 0
338 -339 -340 0
338 -64 -339 0
338 64 -340 0
339 -16 -80 0
339 -68 -16 0
339 68 -80 0
34 -16 -46 0
34 -35 -16 0
34 35 -46 0
340 -16 -341 0
340 -71 -16 0
340 71 -341 0
341 -342 -343 0
341 -74 -342 0
341 74 -343 0
342 -13 -80 0
342 -77 -13 0
342 77 -80 0
343 -16 -344 0
343 -80 -16 0
343 80 -344 0
344 -16 -345 0
344 -83 -16 0
344 83 -345 0
345 -339 -346 0
345 -86 -339 0
345 86 -346 0
346 -16 -347 0
346 -88 -16 0
346 88 -347 0
347 -348 -80 0
347 -90 -348 0
347 90 -80 0
348 -16 -80 0
348 -77 -16 0
348 77 -80 0
349 -231 -368 0
349 -350 -231 0
349 350 -368 0
35 -36 -44 0
350 -22 -351 0
350 -351 -83 0
350 22 -83 0
351 -16 -352 0
351 -30 -16 0
351 30 -352 0
352 -32 -353 0
352 -353 -83 0
352 32 -83 0
353 -16 -354 0
353 -35 -16 0
353 35 -354 0
354 -355 -356 0
354 -47 -355 0
354 47 -356 0
355 -16 -83 0
355 -52 -16 0
355 52 -83 0
356 -16 -357 0
356 -55 -16 0
356 55 -357 0
357 -16 -358 0
357 -60 -16 0
357 60 -358 0
358 -359 -360 0
358 -64 -359 0
358 64 -360 0
359 -16 -83 0
359 -68 -16 0
359 68 -83 0
36 -37 -42 0
360 -16 -361 0
360 -71 -16 0
360 71 -361 0
361 -362 -363 0
361 -74 -362 0
361 74 -363 0
362 -16 -83 0
362 -77 -16 0
362 77 -83 0
363 -13 -364 0
363 -80 -13 0
363 80 -364 0
364 -16 -365 0
364 -83 -16 0
364 83 -365 0
365 -359 -366 0
365 -86 -359 0
365 86 -366 0
366 -16 -367 0
366 -88 -16 0
366 88 -367 0
367 -362 -83 0
367 -90 -362 0
367 90 -83 0
368 -231 -387 0
368 -369 -231 0
368 369 -387 0
369 -22 -370 0
369 -370 -86 0
369 22 -86 0
37 -38 -40 0
370 -16 -371 0
370 -30 -16 0
370 30 -371 0
371 -32 -372 0
371 -372 -86 0
371 32 -86 0
372 -16 -373 0
372 -35 -16 0
372 35 -373 0
373 -374 -375 0
373 -47 -374 0
373 47 -375 0
374 -16 -86 0
374 -52 -16 0
374 52 -86 0
375 -16 -376 0
375 -55 -16 0
375 55 -376 0
376 -16 -377 0
376 -60 -16 0
376 60 -377 0
377 -378 -379 0
377 -64 -378 0
377 64 -379 0
378 -16 -86 0
378 -68 -16 0
378 68 -86 0
379 -16 -380 0
379 -71 -16 0
379 71 -380 0
38 -39 -16 0
38 39 16 0
380 -381 -382 0
380 -74 -381 0
380 74 -382 0
381 -16 -86 0
381 -77 -16 0
381 77 -86 0
382 -16 -383 0
382 -80 -16 0
382 80 -383 0
383 -13 -384 0
383 -83 -13 0
383 83 -384 0
384 -378 -385 0
384 -86 -378 0
384 86 -385 0
385 -16 -386 0
385 -88 -16 0
385 88 -386 0
386 -381 -86 0
386 -90 -381 0
386 90 -86 0
387 -231 -407 0
387 -388 -231 0
387 388 -407 0
388 -22 -389 0
388 -389 -88 0
388 22 -88 0
389 -16 -390 0
389 -30 -16 0
389 30 -390 0
390 -32 -391 0
390 -391 -88 0
390 32 -88 0
391 -16 -392 0
391 -35 -16 0
391 35 -392 0
392 -393 -394 0
392 -47 -393 0
392 47 -394 0
393 -16 -88 0
393 -52 -16 0
393 52 -88 0
394 -16 -395 0
394 -55 -16 0
394 55 -395 0
395 -16 -396 0
395 -60 -16 0
395 60 -396 0
396 -397 -398 0
396 -64 -397 0
396 64 -398 0
397 -16 -88 0
397 -68 -16 0
397 68 -88 0
398 -16 -399 0
398 -71 -16 0
398 71 -399 0
399 -400 -401 0
399 -74 -400 0
399 74 -401 0
4 -5 -6 0
4 5 6 0
40 -41 -16 0
40 41 16 0
400 -16 -88 0
400 -77 -16 0
400 77 -88 0
401 -16 -402 0
401 -80 -16 0
401 80 -402 0
402 -16 -403 0
402 -83 -16 0
402 83 -403 0
403 -404 -405 0
403 -86 -404 0
403 86 -405 0
404 -13 -88 0
404 -68 -13 0
404 68 -88 0
405 -16 -406 0
405 -88 -16 0
405 88 -406 0
406 -400 -88 0
406 -90 -400 0
406 90 -88 0
407 -408 -426 0
407 -426 -14 0
407 408 -14 0
408 -22 -409 0
408 -409 -90 0
408 22 -90 0
409 -16 -410 0
409 -30 -16 0
409 30 -410 0
410 -32 -411 0
410 -411 -90 0
410 32 -90 0
411 -16 -412 0
411 -35 -16 0
411 35 -412 0
412 -413 -414 0
412 -47 -413 0
412 47 -414 0
413 -16 -90 0
413 -52 -16 0
413 52 -90 0
414 -16 -415 0
414 -55 -16 0
414 55 -415 0
415 -16 -416 0
415 -60 -16 0
415 60 -416 0
416 -417 -418 0
416 -64 -417 0
416 64 -418 0
417 -16 -90 0
417 -68 -16 0
417 68 -90 0
418 -16 -419 0
418 -71 -16 0
418 71 -419 0
419 -420 -421 0
419 -74 -420 0
419 74 -421 0
42 -43 -16 0
42 43 16 0
420 -16 -90 0
420 -77 -16 0
420 77 -90 0
421 -16 -422 0
421 -80 -16 0
421 80 -422 0
422 -16 -423 0
422 -83 -16 0
422 83 -423 0
423 -417 -424 0
423 -86 -417 0
423 86 -424 0
424 -13 -425 0
424 -88 -13 0
424 88 -425 0
425 -420 -90 0
425 -90 -420 0
425 90 -90 0
426 -14 -231 0
426 -427 -14 0
426 427 -231 0
427 -428 -13 0
427 428 13 0
44 -45 -16 0
44 45 16 0
46 -47 -51 0
46 -51 -54 0
46 47 -54 0
47 -48 -44 0
48 -49 -42 0
49 -50 -40 0
50 -39 -13 0
50 39 13 0
51 -16 -35 0
51 -52 -16 0
51 52 -35 0
52 -53 -13 0
52 53 13 0
54 -16 -59 0
54 -55 -16 0
54 55 -59 0
55 -56 -44 0
56 -57 -42 0
57 -38 -58 0
58 -41 -13 0
58 41 13 0
59 -16 -63 0
59 -60 -16 0
59 60 -63 0
60 -61 -44 0
61 -62 -42 0
62 -50 -58 0
63 -64 -67 0
63 -67 -70 0
63 64 -70 0
64 -65 -44 0
65 -37 -66 0
66 -43 -13 0
66 43 13 0
67 -16 -35 0
67 -68 -16 0
67 68 -35 0
68 -69 -13 0
68 69 13 0
7 8 0
70 -16 -73 0
70 -71 -16 0
70 71 -73 0
71 -72 -44 0
72 -49 -66 0
73 -74 -76 0
73 -76 -79 0
73 74 -79 0
74 -56 -75 0
75 -45 -13 0
75 45 13 0
76 -16 -35 0
76 -77 -16 0
76 77 -35 0
77 -78 -13 0
77 78 13 0
79 -16 -82 0
79 -80 -16 0
79 80 -82 0
8 -9 -10 0
8 9 10 0
80 -81 -44 0
81 -57 -66 0
82 -16 -85 0
82 -83 -16 0
82 83 -85 0
83 -84 -44 0
84 -62 -66 0
85 -67 -87 0
85 -86 -67 0
85 86 -87 0
86 -36 -75 0
87 -16 -89 0
87 -88 -16 0
87 88 -89 0
88 -48 -75 0
89 -90 -91 0
89 -91 -35 0
89 90 -35 0
90 -61 -75 0
91 -13 -35 0
91 -77 -13 0
91 77 -35 0
92 -111 -233 0
92 -93 -111 0
92 93 -233 0
93 -22 -94 0
93 -94 -47 0
93 22 -47 0
94 -16 -95 0
94 -30 -16 0
94 30 -95 0
95 -32 -96 0
95 -96 -47 0
95 32 -47 0
96 -13 -97 0
96 -35 -13 0
96 35 -97 0
97 -47 -98 0
97 -98 -99 0
97 47 -99 0
98 -16 -47 0
98 -52 -16 0
98 52 -47 0
99 -16 -100 0
99 -55 -16 0
99 55 -100 0
